(set-info :smt-lib-version 2.6)
(set-logic QF_S)
(set-info :source |
Generated by: Oliver Markgraf, Hongjian Jiang, Daniel Stan, Anthony W. Lin, Philipp Ruemmer
Generated on: 2025-04-08
Application: Using String Solvers to solve RMC problems encoded as CHC over Strings
Target solver: cvc5, OSTRICH, Z3, Z3alpha, Z3-noodler
Time limit: 60.0
Benchmarks are extracted by running HornStr https://arg-git.informatik.uni-kl.de/pub/string-chc-lib on all benchmarks
provided in the repository and gathering the string queries sent to the string solvers.
|)
(set-info :license "https://creativecommons.org/licenses/by/4.0/")
(set-info :category "industrial")
(set-info :status unknown)
(declare-fun varout () String)
(assert (let ((a!1 (re.* (re.union (re.union (str.to_re "b") (str.to_re "n"))
                           (str.to_re "r")))))
  (str.in_re varout a!1)))
(declare-fun varin () String)
(assert (let ((a!1 (re.* (re.union (re.union (str.to_re "b") (str.to_re "n"))
                           (str.to_re "r")))))
  (str.in_re varin a!1)))
(declare-fun X () String)
(declare-fun A () String)
(declare-fun B () String)
(declare-fun C () String)
(declare-fun Y () String)
(declare-fun isin () Bool)
(declare-fun isout () Bool)
(assert (let ((a!1 (and true
                (= X (str.++ A "nb" B "rn" C))
                (= Y (str.++ A "bn" B "nr" C))
                (str.in_re A (re.* (str.to_re "n")))
                (str.in_re B (re.* (str.to_re "n")))
                (str.in_re C (re.* (str.to_re "n")))
                (= X varin)
                isin
                (= Y varout)
                isout)))
  (or a!1)))
(assert (let ((a!1 (re.union (re.union (str.to_re "n") (str.to_re "r"))
                     (re.++ (str.to_re "b")
                            (re.union (str.to_re "b") (str.to_re "r")))))
      (a!2 (re.++ (re.union (str.to_re "n") (str.to_re "r"))
                  (re.* (re.union (str.to_re "n") (str.to_re "r")))))
      (a!8 (re.++ (re.* (re.union (str.to_re "n") (str.to_re "r")))
                  (str.to_re "b")))
      (a!18 (re.++ (str.to_re "n")
                   (re.++ (re.* (str.to_re "n")) (str.to_re "r")))))
(let ((a!3 (re.++ (re.* (re.union (str.to_re "n") (str.to_re "r")))
                  (re.union (str.to_re "") a!2)))
      (a!9 (re.union (str.to_re "b")
                     (re.++ (re.union (str.to_re "n") (str.to_re "r")) a!8)))
      (a!19 (re.++ (re.++ (str.to_re "b") (str.to_re "n"))
                   (re.++ (re.* (str.to_re "n"))
                          (re.union (str.to_re "r") a!18)))))
(let ((a!4 (re.++ (re.* (str.to_re "n"))
                  (re.union (str.to_re "") (re.++ (str.to_re "b") a!3))))
      (a!10 (re.++ (re.* (re.union (str.to_re "n") (str.to_re "r"))) a!9))
      (a!15 (re.union (str.to_re "")
                      (re.++ (re.union (str.to_re "b") (str.to_re "r")) a!3)))
      (a!20 (re.++ (re.union (re.union (str.to_re "b") (str.to_re "n"))
                             (str.to_re "r"))
                   a!3)))
(let ((a!5 (re.union (re.union (str.to_re "") (re.++ (str.to_re "b") a!3))
                     (re.++ (str.to_re "n") a!4)))
      (a!11 (re.++ (str.to_re "n")
                   (re.++ (re.* (str.to_re "n")) (re.++ (str.to_re "b") a!10))))
      (a!14 (re.union (str.to_re "n")
                      (re.++ (re.union (str.to_re "b") (str.to_re "r")) a!10)))
      (a!21 (re.++ (re.union (re.union (str.to_re "b") (str.to_re "n"))
                             (str.to_re "r"))
                   a!10)))
(let ((a!6 (re.++ (re.++ (str.to_re "b") (str.to_re "n"))
                  (re.++ (re.* (str.to_re "n")) a!5)))
      (a!12 (re.++ (re.* (str.to_re "n"))
                   (re.union (re.++ (str.to_re "b") a!10) a!11)))
      (a!16 (re.union a!15 (re.++ a!14 (re.++ (re.* a!14) a!15)))))
(let ((a!7 (re.union (re.union (re.union (str.to_re "") (str.to_re "b"))
                               (re.++ a!1 a!3))
                     a!6))
      (a!13 (re.union (re.++ a!1 a!10)
                      (re.++ (re.++ (str.to_re "b") (str.to_re "n")) a!12)))
      (a!22 (re.union a!20 (re.++ a!21 (re.++ (re.* a!14) a!16)))))
(let ((a!17 (re.union a!7 (re.++ a!13 (re.++ (re.* a!14) a!16)))))
  (str.in_re varin (re.union a!17 (re.++ a!19 a!22)))))))))))
(assert (let ((a!1 (re.++ (str.to_re "n")
                  (re.++ (re.* (str.to_re "n")) (str.to_re "r")))))
(let ((a!2 (re.++ (re.++ (str.to_re "b") (str.to_re "n"))
                  (re.++ (re.* (str.to_re "n")) (re.union (str.to_re "r") a!1)))))
  (str.in_re varout a!2))))
(check-sat)
(exit)
